solution status: optimal solution found
objective value:                                    0
v29                                                 1 	(obj:0)
v36                                                 1 	(obj:0)
v41                                                 1 	(obj:0)
v50                                                 1 	(obj:0)
v60                                                 1 	(obj:0)
v69                                                 1 	(obj:0)
v79                                                 1 	(obj:0)
v88                                                 1 	(obj:0)
v91                                                 1 	(obj:0)
v98                                                 1 	(obj:0)
v1013                                               1 	(obj:0)
v1032                                               1 	(obj:0)
v1055                                               1 	(obj:0)
v1065                                               1 	(obj:0)
v1077                                               1 	(obj:0)
v1118                                               1 	(obj:0)
v1146                                               1 	(obj:0)
v1163                                               1 	(obj:0)
v1168                                               1 	(obj:0)
v1188                                               1 	(obj:0)
v1198                                               1 	(obj:0)
v2                                                  1 	(obj:0)
v9                                                  1 	(obj:0)
v1218                                               1 	(obj:0)
v1243                                               1 	(obj:0)
v1245                                               1 	(obj:0)
v1272                                               1 	(obj:0)
v1297                                               1 	(obj:0)
v1308                                               1 	(obj:0)
v1319                                               1 	(obj:0)
v1350                                               1 	(obj:0)
v1372                                               1 	(obj:0)
v1378                                               1 	(obj:0)
v1391                                               1 	(obj:0)
v1400                                               1 	(obj:0)
v1433                                               1 	(obj:0)
v1459                                               1 	(obj:0)
v1469                                               1 	(obj:0)
v1495                                               1 	(obj:0)
v1523                                               1 	(obj:0)
v1536                                               1 	(obj:0)
v1545                                               1 	(obj:0)
v1562                                               1 	(obj:0)
v1588                                               1 	(obj:0)
v1598                                               1 	(obj:0)
v1605                                               1 	(obj:0)
v111                                                1 	(obj:0)
v120                                                1 	(obj:0)
v136                                                1 	(obj:0)
v143                                                1 	(obj:0)
v148                                                1 	(obj:0)
v157                                                1 	(obj:0)
v167                                                1 	(obj:0)
v169                                                1 	(obj:0)
v170                                                1 	(obj:0)
v171                                                1 	(obj:0)
v173                                                1 	(obj:0)
v174                                                1 	(obj:0)
v179                                                1 	(obj:0)
v180                                                1 	(obj:0)
v182                                                1 	(obj:0)
v183                                                1 	(obj:0)
v184                                                1 	(obj:0)
v185                                                1 	(obj:0)
v190                                                1 	(obj:0)
v193                                                1 	(obj:0)
v195                                                1 	(obj:0)
v197                                                1 	(obj:0)
v199                                                1 	(obj:0)
v200                                                1 	(obj:0)
v205                                                1 	(obj:0)
v207                                                1 	(obj:0)
v210                                                1 	(obj:0)
v212                                                1 	(obj:0)
v213                                                1 	(obj:0)
v214                                                1 	(obj:0)
v217                                                1 	(obj:0)
v222                                                1 	(obj:0)
v224                                                1 	(obj:0)
v225                                                1 	(obj:0)
v226                                                1 	(obj:0)
v227                                                1 	(obj:0)
v228                                                1 	(obj:0)
v229                                                1 	(obj:0)
v238                                                1 	(obj:0)
v239                                                1 	(obj:0)
v240                                                1 	(obj:0)
v241                                                1 	(obj:0)
v245                                                1 	(obj:0)
v248                                                1 	(obj:0)
v250                                                1 	(obj:0)
v252                                                1 	(obj:0)
v255                                                1 	(obj:0)
v256                                                1 	(obj:0)
v258                                                1 	(obj:0)
v260                                                1 	(obj:0)
v262                                                1 	(obj:0)
v267                                                1 	(obj:0)
v269                                                1 	(obj:0)
v270                                                1 	(obj:0)
v272                                                1 	(obj:0)
v273                                                1 	(obj:0)
v275                                                1 	(obj:0)
v277                                                1 	(obj:0)
v283                                                1 	(obj:0)
v284                                                1 	(obj:0)
v285                                                1 	(obj:0)
v287                                                1 	(obj:0)
v289                                                1 	(obj:0)
v290                                                1 	(obj:0)
v296                                                1 	(obj:0)
v297                                                1 	(obj:0)
v299                                                1 	(obj:0)
v300                                                1 	(obj:0)
v301                                                1 	(obj:0)
v304                                                1 	(obj:0)
v307                                                1 	(obj:0)
v309                                                1 	(obj:0)
v310                                                1 	(obj:0)
v312                                                1 	(obj:0)
v316                                                1 	(obj:0)
v320                                                1 	(obj:0)
v322                                                1 	(obj:0)
v324                                                1 	(obj:0)
v330                                                1 	(obj:0)
v343                                                1 	(obj:0)
v368                                                1 	(obj:0)
v404                                                1 	(obj:0)
v411                                                1 	(obj:0)
v421                                                1 	(obj:0)
v433                                                1 	(obj:0)
v446                                                1 	(obj:0)
v472                                                1 	(obj:0)
v493                                                1 	(obj:0)
v510                                                1 	(obj:0)
v524                                                1 	(obj:0)
v538                                                1 	(obj:0)
v563                                                1 	(obj:0)
v575                                                1 	(obj:0)
v601                                                1 	(obj:0)
v619                                                1 	(obj:0)
v639                                                1 	(obj:0)
v661                                                1 	(obj:0)
v681                                                1 	(obj:0)
v690                                                1 	(obj:0)
v708                                                1 	(obj:0)
v726                                                1 	(obj:0)
v752                                                1 	(obj:0)
v764                                                1 	(obj:0)
v771                                                1 	(obj:0)
v790                                                1 	(obj:0)
v809                                                1 	(obj:0)
v832                                                1 	(obj:0)
v845                                                1 	(obj:0)
v855                                                1 	(obj:0)
v898                                                1 	(obj:0)
v916                                                1 	(obj:0)
v931                                                1 	(obj:0)
v938                                                1 	(obj:0)
v958                                                1 	(obj:0)
v983                                                1 	(obj:0)
v993                                                1 	(obj:0)
